Set parameter TokenServer to value "hpc-licenses.hpcc.usc.edu"
Set parameter TimeLimit to value 3600
Gurobi Optimizer version 9.5.1 build v9.5.1rc2 (linux64)
Thread count: 20 physical cores, 20 logical processors, using up to 20 threads
Optimize a model with 6007 rows, 4529 columns and 24534 nonzeros
Model fingerprint: 0x3c06be38
Variable types: 4506 continuous, 23 integer (23 binary)
Coefficient statistics:
  Matrix range     [1e+00, 1e+00]
  Objective range  [3e-03, 1e+00]
  Bounds range     [1e+00, 1e+00]
  RHS range        [1e+00, 1e+02]
Found heuristic solution: objective 219.2990784
Presolve removed 1520 rows and 1515 columns
Presolve time: 0.11s
Presolved: 4487 rows, 3014 columns, 21975 nonzeros
Variable types: 2994 continuous, 20 integer (20 binary)

Root relaxation: objective 2.305096e+02, 2703 iterations, 0.14 seconds (0.15 work units)

    Nodes    |    Current Node    |     Objective Bounds      |     Work
 Expl Unexpl |  Obj  Depth IntInf | Incumbent    BestBd   Gap | It/Node Time

     0     0  230.50964    0    5  219.29908  230.50964  5.11%     -    0s
H    0     0                     230.1757669  230.50964  0.15%     -    0s
     0     0  230.48558    0    5  230.17577  230.48558  0.13%     -    0s
     0     0  230.48108    0    5  230.17577  230.48108  0.13%     -    0s
     0     0  230.17577    0    6  230.17577  230.17577  0.00%     -    1s

Cutting planes:
  Gomory: 2
  Implied bound: 154
  MIR: 34
  Flow cover: 46
  RLT: 6
  Relax-and-lift: 30

Explored 1 nodes (4737 simplex iterations) in 1.27 seconds (0.55 work units)
Thread count was 20 (of 20 available processors)

Solution count 2: 230.176 219.299 

Optimal solution found (tolerance 1.00e-04)
Best objective 2.301757669439e+02, best bound 2.301757669439e+02, gap 0.0000%



#########node  1
V1.8
#########node  2
0.09090909090909091,0.9090909090909091
#########node  3
1.0,0.0


Total Solving Time 1.6864380836486816
obj value 230.1757669438789
Policy Regret train (Sum) 6.574261261987341
Best Treatment Found train (%) 61.8
treatment classification acc train (%) 31.6
Policy Regret test (Sum) 108.72835269107836
Best Treatment Found test (%) 63.12
treatment classification acc test (%) 33.79
Set parameter TokenServer to value "hpc-licenses.hpcc.usc.edu"
Set parameter TimeLimit to value 3600
Gurobi Optimizer version 9.5.1 build v9.5.1rc2 (linux64)
Thread count: 20 physical cores, 20 logical processors, using up to 20 threads
Optimize a model with 6007 rows, 4529 columns and 24534 nonzeros
Model fingerprint: 0x3c06be38
Variable types: 4506 continuous, 23 integer (23 binary)
Coefficient statistics:
  Matrix range     [1e+00, 1e+00]
  Objective range  [3e-03, 1e+00]
  Bounds range     [1e+00, 1e+00]
  RHS range        [1e+00, 1e+02]
Found heuristic solution: objective 219.2990784
Presolve removed 1520 rows and 1515 columns
Presolve time: 0.08s
Presolved: 4487 rows, 3014 columns, 21975 nonzeros
Variable types: 2994 continuous, 20 integer (20 binary)

Root relaxation: objective 2.305096e+02, 2703 iterations, 0.14 seconds (0.15 work units)

    Nodes    |    Current Node    |     Objective Bounds      |     Work
 Expl Unexpl |  Obj  Depth IntInf | Incumbent    BestBd   Gap | It/Node Time

     0     0  230.50964    0    5  219.29908  230.50964  5.11%     -    0s
H    0     0                     230.1757669  230.50964  0.15%     -    0s
     0     0  230.48558    0    5  230.17577  230.48558  0.13%     -    0s
     0     0  230.48108    0    5  230.17577  230.48108  0.13%     -    0s
     0     0  230.17577    0    6  230.17577  230.17577  0.00%     -    1s

Cutting planes:
  Gomory: 2
  Implied bound: 154
  MIR: 34
  Flow cover: 46
  RLT: 6
  Relax-and-lift: 30

Explored 1 nodes (4737 simplex iterations) in 1.13 seconds (0.55 work units)
Thread count was 20 (of 20 available processors)

Solution count 2: 230.176 219.299 

Optimal solution found (tolerance 1.00e-04)
Best objective 2.301757669439e+02, best bound 2.301757669439e+02, gap 0.0000%



#########node  1
V1.8
#########node  2
0.09090909090909091,0.9090909090909091
#########node  3
1.0,0.0


Total Solving Time 1.4789047241210938
obj value 230.1757669438789
Policy Regret train (Sum) 6.574261261987341
Best Treatment Found train (%) 61.8
treatment classification acc train (%) 31.6
Policy Regret test (Sum) 108.72835269107836
Best Treatment Found test (%) 63.12
treatment classification acc test (%) 33.79
